job_count = 12 ;
duration = [|16, 9, 10, 8|22, 9, 5, 4|25, 11, 14, 9|7, 4, 17, 2|12, 19, 10, 7|19, 20, 2, 4|5, 6, 17, 8|38, 27, 16, 6|28, 27, 17, 8|22, 4, 11, 3|20, 15, 13, 3|27, 15, 11, 6|] ;
machine_count = 4 ;
cost = [|17, 29, 59, 50|15, 29, 54, 63|18, 24, 49, 45|16, 33, 31, 72|17, 27, 37, 43|15, 32, 43, 76|14, 23, 42, 56|12, 32, 57, 54|10, 32, 46, 52|10, 22, 59, 79|11, 34, 42, 57|11, 39, 54, 47|] ;
deadline = [25, 25, 25, 25, 25, 25, 25, 25, 25, 25, 25, 25] ;
release = [0, 0, 0, 0, 0, 0, 0, 0, 0, 0, 0, 0] ;
resource = [|8, 8, 8, 8|7, 7, 7, 7|3, 3, 3, 3|2, 2, 2, 2|4, 4, 4, 4|6, 6, 6, 6|9, 9, 9, 9|7, 7, 7, 7|1, 1, 1, 1|6, 6, 6, 6|4, 4, 4, 4|9, 9, 9, 9|] ;
capacities = [10, 10, 10, 10] ;
